c Random 9-CNF over 30 variables and 60 clauses
c Generated with `cnfgen`
c (C) 2012-2016 Massimo Lauria <lauria.massimo@gmail.com>
c https://massimolauria.github.io/cnfgen
c
c COMMAND LINE: cnfgen --output tmp-9-30-60.dimacs --output-format dimacs randkcnf 9 30 60
c
c sdimacs generated by gen-sdimacs
c
p cnf 30 60
r 0.5 1 2 3 4 5 6 7 8 9 10 11 12 13 14 15 0
e  16 17 18 19 20 21 22 23 24 25 26 27 28 29 30 0
-2 5 12 15 -16 -24 25 -26 -28 0
1 3 -6 -10 14 17 22 25 -28 0
-7 -8 9 -10 20 -21 -23 -26 27 0
-2 -6 7 8 16 -19 -21 -28 -30 0
2 -4 -6 15 -16 -17 -26 -28 29 0
2 -5 7 11 -16 -18 -20 22 -24 0
-2 4 8 -17 -19 20 -25 27 30 0
-3 -5 11 -15 16 18 20 24 28 0
4 7 -9 -11 13 17 20 -25 -28 0
3 6 7 8 -9 -21 22 23 -24 0
-9 12 -13 14 16 -18 -21 -28 -29 0
1 11 14 15 20 21 23 -24 -25 0
-4 5 -16 17 -21 -26 -28 -29 -30 0
-1 -5 7 -11 -15 19 -21 22 29 0
3 -6 -7 -11 -13 14 16 26 28 0
-1 -2 3 7 -11 15 25 -27 -29 0
1 6 -8 17 20 22 26 28 -30 0
3 -4 -8 -11 -14 -18 20 24 -30 0
2 -4 5 9 -10 -13 22 -27 29 0
-1 5 12 -16 17 20 -21 -28 29 0
1 -2 -4 -15 -16 -18 -20 22 25 0
-1 -2 -4 7 13 16 17 21 -30 0
-2 6 10 14 15 -17 21 -22 23 0
-1 5 -6 9 13 -14 -17 -28 29 0
-2 -6 11 14 -15 -19 -21 -25 -27 0
-1 -5 8 -11 -16 18 19 -22 29 0
2 4 -8 -10 14 22 -23 -26 28 0
3 5 -6 -12 15 18 21 -25 27 0
2 -5 -6 13 -18 21 -23 26 -28 0
2 5 -9 -12 16 23 25 26 -30 0
-1 -11 18 -19 -23 26 28 29 30 0
4 -5 7 -9 12 -13 -26 29 -30 0
2 5 -10 -12 -16 17 -18 22 -30 0
6 8 11 13 15 -16 -18 -20 -30 0
3 -5 6 7 -9 -14 -19 -24 26 0
-2 3 -7 10 -14 16 19 25 -26 0
-2 -5 -6 7 8 -19 22 27 28 0
-1 -2 7 8 -13 14 18 26 -27 0
-9 10 14 17 18 -19 -21 23 -29 0
2 -6 -7 -9 10 21 22 23 29 0
5 -6 11 -12 -17 -20 -23 26 -30 0
-7 10 -12 -13 16 -17 -18 20 -29 0
-4 -5 10 -12 16 -18 25 26 30 0
1 2 9 10 -13 19 -21 -23 24 0
1 -3 -4 -7 10 -13 14 16 -28 0
5 7 13 20 22 24 -25 28 29 0
2 8 11 -13 -19 21 -22 -29 -30 0
-1 2 -6 7 10 -13 -14 21 -25 0
1 2 3 5 10 14 15 16 -28 0
-4 6 -10 -16 -19 20 -23 25 -29 0
3 5 9 -10 -12 16 -18 -19 -26 0
-4 5 6 -18 20 -23 24 25 -29 0
-1 4 -5 13 15 -18 -23 -27 -30 0
-1 -7 -8 11 18 -24 -25 -26 -28 0
7 12 -15 17 20 22 27 -28 -30 0
2 6 -10 -12 -15 -16 -19 -22 26 0
5 -6 7 -16 18 22 26 28 -30 0
1 -5 6 7 14 23 24 -25 30 0
-2 7 12 13 -22 24 -26 -28 -30 0
-6 -7 15 -18 -20 -21 -22 -27 -29 0
